p tw 167 533
0 1
0 2
0 3
0 21
0 49
0 55
0 149
0 150
1 2
1 3
1 54
2 3
2 50
3 19
3 28
3 51
3 84
3 85
3 86
4 5
4 6
4 7
4 66
4 137
5 6
5 7
5 64
5 67
5 87
5 88
5 89
6 7
6 71
7 24
7 138
7 143
8 9
8 69
8 70
9 85
9 97
9 119
9 165
10 11
10 12
10 13
10 43
10 44
10 45
10 46
10 47
10 48
11 12
11 13
11 83
11 153
11 154
12 13
12 104
12 132
12 155
13 131
14 15
14 16
14 34
14 44
14 57
14 166
15 16
15 58
15 87
15 128
15 136
15 137
15 138
16 22
16 23
16 24
17 18
17 19
17 20
17 21
17 69
17 81
17 140
17 165
18 19
18 20
18 21
18 119
19 20
19 21
19 28
19 51
19 84
19 85
19 86
20 21
20 101
21 49
21 55
21 149
21 150
22 23
22 24
22 121
22 145
22 163
22 164
22 166
23 24
23 68
24 138
24 143
25 26
25 108
25 109
25 110
25 111
26 160
26 162
27 28
27 94
27 123
28 51
28 84
28 85
28 86
29 30
29 93
29 118
30 96
30 102
31 32
31 33
31 34
31 35
31 36
31 37
31 40
31 124
31 133
31 134
32 33
32 34
32 35
32 36
32 37
32 68
32 120
32 121
33 34
33 35
33 36
33 37
33 139
33 145
34 35
34 36
34 37
34 44
34 57
34 166
35 36
35 37
35 38
35 56
35 144
35 164
36 37
36 65
37 103
37 104
37 105
37 106
37 107
38 39
38 40
38 41
38 42
38 56
38 144
38 164
39 40
39 41
39 42
39 116
39 117
40 41
40 42
40 124
40 133
40 134
41 42
41 125
41 146
42 126
43 44
43 45
43 46
43 47
43 48
43 163
44 45
44 46
44 47
44 48
44 57
44 166
45 46
45 47
45 48
45 73
45 135
45 158
46 47
46 48
46 72
46 130
46 131
46 132
47 48
47 84
47 101
47 113
47 150
48 149
49 50
49 51
49 55
49 149
49 150
50 51
51 84
51 85
51 86
52 53
52 54
52 55
52 77
52 98
52 147
53 54
53 55
53 112
53 113
54 55
55 149
55 150
56 57
56 144
56 164
57 166
58 59
58 60
58 61
58 62
58 87
58 128
58 136
58 137
58 138
59 60
59 61
59 62
59 148
60 61
60 62
60 66
60 67
61 62
61 75
61 88
61 90
61 91
61 92
62 129
63 64
63 92
63 136
63 158
64 67
64 87
64 88
64 89
65 107
65 156
66 67
66 137
67 87
67 88
67 89
68 120
68 121
69 70
69 81
69 140
69 165
70 80
70 97
71 89
71 143
72 73
72 74
72 75
72 130
72 131
72 132
73 74
73 75
73 135
73 158
74 75
74 86
74 93
74 94
74 95
74 96
75 88
75 90
75 91
75 92
76 77
76 78
76 79
76 99
77 78
77 79
77 98
77 147
78 79
78 114
78 157
79 82
79 100
79 115
79 159
79 161
80 81
80 97
81 140
81 165
82 83
82 100
82 115
82 159
82 161
83 153
83 154
84 85
84 86
84 101
84 113
84 150
85 86
85 97
85 119
85 165
86 93
86 94
86 95
86 96
87 88
87 89
87 128
87 136
87 137
87 138
88 89
88 90
88 91
88 92
89 143
90 91
90 92
90 128
90 129
91 92
91 95
91 122
91 148
92 136
92 158
93 94
93 95
93 96
93 118
94 95
94 96
94 123
95 96
95 122
95 148
96 102
97 119
97 165
98 99
98 100
98 147
99 100
100 115
100 159
100 161
101 113
101 150
102 118
102 140
103 104
103 105
103 106
103 107
103 116
103 151
104 105
104 106
104 107
104 132
104 155
105 106
105 107
105 117
105 152
106 107
106 127
106 141
106 142
107 156
108 109
108 110
108 111
108 141
108 153
108 155
108 159
108 160
109 110
109 111
109 114
109 115
110 111
110 112
110 147
110 154
110 157
110 161
110 162
111 127
112 113
112 147
112 154
112 157
112 161
112 162
113 150
114 115
114 157
115 159
115 161
116 117
116 151
117 152
118 140
119 165
120 121
120 139
121 145
121 163
121 164
121 166
122 123
122 148
124 125
124 133
124 134
125 146
126 133
126 146
127 141
127 142
128 129
128 136
128 137
128 138
130 131
130 132
130 135
131 132
132 155
133 134
133 146
134 144
135 158
136 137
136 138
136 158
137 138
138 143
139 145
140 165
141 142
141 153
141 155
141 159
141 160
142 156
144 164
145 163
145 164
145 166
147 154
147 157
147 161
147 162
149 150
151 152
153 154
153 155
153 159
153 160
154 157
154 161
154 162
155 159
155 160
157 161
157 162
159 160
159 161
160 162
161 162
163 164
163 166
164 166
